; benchmark generated from python API
(set-info :status unknown)
(declare-fun x_month () Int)
(declare-fun x_day () Int)
(declare-fun x_year () Int)
(assert
 (>= x_month 1))
(assert
 (<= x_month 12))
(assert
 (>= x_day 1))
(assert
 (<= x_day 31))
(assert
 (let (($x190 (<= x_day 28)))
 (let (($x187 (<= x_day 29)))
 (let (($x219 (= (mod x_year 400) 0)))
 (let (($x207 (= (mod x_year 4) 0)))
 (let (($x191 (ite (or (and $x207 (and (distinct (mod x_year 100) 0) true)) $x219) $x187 $x190)))
 (let (($x188 (= x_month 2)))
 (ite $x188 $x191 true))))))))
(assert
 (let (($x280 (<= x_day 30)))
 (let (($x271 (or (= x_month 4) (= x_month 6) (= x_month 9) (= x_month 11))))
 (ite $x271 $x280 true))))
(assert
 (let (($x286 (= x_year 2020)))
 (let (($x240 (and $x286 (or (> x_month 1) (and (= x_month 1) (>= x_day 1))))))
 (or (> x_year 2020) $x240))))
(assert
 (let (($x286 (= x_year 2020)))
 (let (($x245 (and $x286 (or (< x_month 2) (and (= x_month 2) (<= x_day 28))))))
 (or (< x_year 2020) $x245))))
(assert
 (let ((?x429 (+ (mod (- (+ x_month (+ (* 0 12) 0)) 1) 12) 1)))
(let ((?x497 (ite (or (= ?x429 4) (= ?x429 6) (= ?x429 9) (= ?x429 11)) 30 31)))
(let ((?x428 (+ 0 (div (- (+ x_month (+ (* 0 12) 0)) 1) 12))))
(let ((?x475 (+ x_year ?x428)))
(let (($x483 (or (and (= (mod ?x475 4) 0) (and (distinct (mod ?x475 100) 0) true)) (= (mod ?x475 400) 0))))
(let ((?x498 (ite (= ?x429 2) (ite $x483 29 28) ?x497)))
(let (($x214 (< x_day 1)))
(let ((?x490 (ite $x214 1 (ite (> x_day ?x498) ?x498 x_day))))
(let ((?x578 (ite (< ?x490 1) 1 (ite (> ?x490 ?x498) ?x498 ?x490))))
(let ((?x539 (ite (= 2 ?x429) (ite $x483 31 31) (ite (= 1 ?x429) (ite $x483 0 0) 0))))
(let ((?x533 (ite (= 4 ?x429) (ite $x483 91 90) (ite (= 3 ?x429) (ite $x483 60 59) ?x539))))
(let ((?x527 (ite (= 6 ?x429) (ite $x483 152 151) (ite (= 5 ?x429) (ite $x483 121 120) ?x533))))
(let ((?x521 (ite (= 8 ?x429) (ite $x483 213 212) (ite (= 7 ?x429) (ite $x483 182 181) ?x527))))
(let ((?x532 (ite (= 10 ?x429) (ite $x483 274 273) (ite (= 9 ?x429) (ite $x483 244 243) ?x521))))
(let ((?x579 (ite (= 12 ?x429) (ite $x483 335 334) (ite (= 11 ?x429) (ite $x483 305 304) ?x532))))
(let ((?x504 (- (+ (* 365 (- ?x475 1)) (div (- ?x475 1) 4)) (div (- ?x475 1) 100))))
(let ((?x572 (- (+ (+ (+ ?x504 (div (- ?x475 1) 400)) ?x579) (- ?x578 1)) 730179)))
(let ((?x569 (+ (+ ?x572 365) 730179)))
(let ((?x566 (mod ?x569 146097)))
(let ((?x567 (div ?x566 36524)))
(let ((?x564 (ite (<= 4 ?x567) 3 ?x567)))
(let ((?x561 (- ?x566 (* ?x564 36524))))
(let ((?x558 (mod ?x561 1461)))
(let ((?x554 (div ?x558 365)))
(let ((?x551 (ite (<= 4 ?x554) 3 ?x554)))
(let ((?x543 (+ (+ (* (div ?x569 146097) 400) (* ?x564 100)) (* (div ?x561 1461) 4))))
(let ((?x547 (+ (+ ?x543 ?x551) 1)))
(let (($x571 (or (and (= (mod ?x547 4) 0) (and (distinct (mod ?x547 100) 0) true)) (= (mod ?x547 400) 0))))
(let ((?x548 (- ?x558 (* ?x551 365))))
(let ((?x577 (ite $x571 31 31)))
(let (($x143 (>= ?x548 ?x577)))
(let ((?x124 (ite $x143 (+ (- ?x548 ?x577) 1) (+ (- ?x548 (ite $x571 0 0)) 1))))
(let ((?x580 (ite $x571 60 59)))
(let (($x144 (>= ?x548 ?x580)))
(let ((?x395 (ite $x571 91 90)))
(let (($x137 (>= ?x548 ?x395)))
(let ((?x95 (ite $x137 (+ (- ?x548 ?x395) 1) (ite $x144 (+ (- ?x548 ?x580) 1) ?x124))))
(let ((?x581 (ite $x571 121 120)))
(let (($x138 (>= ?x548 ?x581)))
(let ((?x141 (ite $x571 152 151)))
(let (($x132 (>= ?x548 ?x141)))
(let ((?x40 (ite $x132 (+ (- ?x548 ?x141) 1) (ite $x138 (+ (- ?x548 ?x581) 1) ?x95))))
(let ((?x147 (ite $x571 182 181)))
(let (($x133 (>= ?x548 ?x147)))
(let ((?x152 (ite $x571 213 212)))
(let (($x128 (>= ?x548 ?x152)))
(let ((?x592 (ite $x128 (+ (- ?x548 ?x152) 1) (ite $x133 (+ (- ?x548 ?x147) 1) ?x40))))
(let ((?x158 (ite $x571 244 243)))
(let (($x149 (>= ?x548 ?x158)))
(let ((?x164 (ite $x571 274 273)))
(let (($x148 (>= ?x548 ?x164)))
(let ((?x595 (ite $x148 (+ (- ?x548 ?x164) 1) (ite $x149 (+ (- ?x548 ?x158) 1) ?x592))))
(let ((?x169 (ite $x571 305 304)))
(let (($x165 (>= ?x548 ?x169)))
(let ((?x175 (ite $x571 335 334)))
(let (($x166 (>= ?x548 ?x175)))
(let ((?x601 (ite $x166 (+ (- ?x548 ?x175) 1) (ite $x165 (+ (- ?x548 ?x169) 1) ?x595))))
(let (($x397 (= 0 365)))
(let ((?x263 (+ (mod (- (+ x_month (+ (* 1 12) 0)) 1) 12) 1)))
(let ((?x205 (ite (or (= ?x263 4) (= ?x263 6) (= ?x263 9) (= ?x263 11)) 30 31)))
(let ((?x262 (+ 0 (div (- (+ x_month (+ (* 1 12) 0)) 1) 12))))
(let ((?x212 (+ x_year ?x262)))
(let (($x193 (or (and (= (mod ?x212 4) 0) (and (distinct (mod ?x212 100) 0) true)) (= (mod ?x212 400) 0))))
(let ((?x213 (ite (= ?x263 2) (ite $x193 29 28) ?x205)))
(let ((?x260 (ite $x214 1 (ite (> x_day ?x213) ?x213 x_day))))
(let ((?x267 (ite (< ?x260 1) 1 (ite (> ?x260 ?x213) ?x213 ?x260))))
(let ((?x294 (ite (= 2 ?x263) (ite $x193 31 31) (ite (= 1 ?x263) (ite $x193 0 0) 0))))
(let ((?x42 (ite (= 4 ?x263) (ite $x193 91 90) (ite (= 3 ?x263) (ite $x193 60 59) ?x294))))
(let ((?x327 (ite (= 6 ?x263) (ite $x193 152 151) (ite (= 5 ?x263) (ite $x193 121 120) ?x42))))
(let ((?x317 (ite (= 8 ?x263) (ite $x193 213 212) (ite (= 7 ?x263) (ite $x193 182 181) ?x327))))
(let ((?x312 (ite (= 10 ?x263) (ite $x193 274 273) (ite (= 9 ?x263) (ite $x193 244 243) ?x317))))
(let ((?x57 (ite (= 12 ?x263) (ite $x193 335 334) (ite (= 11 ?x263) (ite $x193 305 304) ?x312))))
(let ((?x68 (- (+ (* 365 (- ?x212 1)) (div (- ?x212 1) 4)) (div (- ?x212 1) 100))))
(let ((?x341 (- (+ (+ (+ ?x68 (div (- ?x212 1) 400)) ?x57) (- ?x267 1)) 730179)))
(let ((?x337 (+ (+ ?x341 0) 730179)))
(let ((?x352 (mod ?x337 146097)))
(let ((?x349 (div ?x352 36524)))
(let ((?x300 (ite (<= 4 ?x349) 3 ?x349)))
(let ((?x347 (- ?x352 (* ?x300 36524))))
(let ((?x328 (mod ?x347 1461)))
(let ((?x348 (div ?x328 365)))
(let ((?x344 (ite (<= 4 ?x348) 3 ?x348)))
(let ((?x343 (+ (+ (* (div ?x337 146097) 400) (* ?x300 100)) (* (div ?x347 1461) 4))))
(let ((?x12 (+ (+ ?x343 ?x344) 1)))
(let (($x59 (or (and (= (mod ?x12 4) 0) (and (distinct (mod ?x12 100) 0) true)) (= (mod ?x12 400) 0))))
(let ((?x351 (- ?x328 (* ?x344 365))))
(let ((?x69 (ite $x59 31 31)))
(let (($x434 (>= ?x351 ?x69)))
(let ((?x453 (ite $x434 (+ (- ?x351 ?x69) 1) (+ (- ?x351 (ite $x59 0 0)) 1))))
(let ((?x60 (ite $x59 60 59)))
(let (($x436 (>= ?x351 ?x60)))
(let ((?x398 (ite $x59 91 90)))
(let (($x401 (>= ?x351 ?x398)))
(let ((?x444 (ite $x401 (+ (- ?x351 ?x398) 1) (ite $x436 (+ (- ?x351 ?x60) 1) ?x453))))
(let ((?x399 (ite $x59 121 120)))
(let (($x471 (>= ?x351 ?x399)))
(let ((?x400 (ite $x59 152 151)))
(let (($x407 (>= ?x351 ?x400)))
(let ((?x440 (ite $x407 (+ (- ?x351 ?x400) 1) (ite $x471 (+ (- ?x351 ?x399) 1) ?x444))))
(let ((?x402 (ite $x59 182 181)))
(let (($x409 (>= ?x351 ?x402)))
(let ((?x404 (ite $x59 213 212)))
(let (($x411 (>= ?x351 ?x404)))
(let ((?x458 (ite $x411 (+ (- ?x351 ?x404) 1) (ite $x409 (+ (- ?x351 ?x402) 1) ?x440))))
(let ((?x430 (ite $x59 244 243)))
(let (($x413 (>= ?x351 ?x430)))
(let ((?x431 (ite $x59 274 273)))
(let (($x468 (>= ?x351 ?x431)))
(let ((?x474 (ite $x468 (+ (- ?x351 ?x431) 1) (ite $x413 (+ (- ?x351 ?x430) 1) ?x458))))
(let ((?x432 (ite $x59 305 304)))
(let (($x465 (>= ?x351 ?x432)))
(let ((?x433 (ite $x59 335 334)))
(let (($x462 (>= ?x351 ?x433)))
(let ((?x417 (ite $x462 (+ (- ?x351 ?x433) 1) (ite $x465 (+ (- ?x351 ?x432) 1) ?x474))))
(let (($x65 (= 0 0)))
(let ((?x140 (ite $x138 5 (ite $x137 4 (ite $x144 3 (ite $x143 2 1))))))
(let ((?x150 (ite $x149 9 (ite $x128 8 (ite $x133 7 (ite $x132 6 ?x140))))))
(let ((?x168 (ite $x166 12 (ite $x165 11 (ite $x148 10 ?x150)))))
(let ((?x406 (ite $x471 5 (ite $x401 4 (ite $x436 3 (ite $x434 2 1))))))
(let ((?x472 (ite $x413 9 (ite $x411 8 (ite $x409 7 (ite $x407 6 ?x406))))))
(let (($x243 (= (ite $x65 ?x263 (ite $x462 12 (ite $x465 11 (ite $x468 10 ?x472)))) (ite $x397 ?x429 ?x168))))
(let (($x605 (and (= (ite $x65 ?x212 ?x12) (ite $x397 ?x475 ?x547)) $x243 (= (ite $x65 ?x267 ?x417) (ite $x397 ?x578 ?x601)))))
(not $x605))))))))))))))))))))))))))))))))))))))))))))))))))))))))))))))))))))))))))))))))))))))))))))))))))))))))))))))))))))))))))))
(check-sat)
